(set-info :smt-lib-version 2.6)
(set-logic QF_LIA)
(set-info :source |
Generated by: Nicolas Amat, Bernard Berthomieu, Silvano Dal Zilio, Didier Le Botlan
Generated on: 2022-03-07
Generator: SMPT
Application: Reachability query on the instance CircularTrains-PT-096 from the Model Checking Contest 2021 using the SMPT model-checker
Target solver: z3
Publications: https://doi.org/10.1007/978-3-030-76983-3_9, http://mcc.lip6.fr/2021/results.php
|)
(set-info :license "https://creativecommons.org/licenses/by/4.0/")
(set-info :category "industrial")
(set-info :status sat)

(declare-const F11 Int)
(assert (>= F11 0))
(declare-const Section_10 Int)
(assert (>= Section_10 0))
(declare-const F9 Int)
(assert (>= F9 0))
(declare-const Section_11 Int)
(assert (>= Section_11 0))
(declare-const F12 Int)
(assert (>= F12 0))
(declare-const F10 Int)
(assert (>= F10 0))
(declare-const Section_12 Int)
(assert (>= Section_12 0))
(declare-const F13 Int)
(assert (>= F13 0))
(declare-const Section_13 Int)
(assert (>= Section_13 0))
(declare-const F14 Int)
(assert (>= F14 0))
(declare-const Section_14 Int)
(assert (>= Section_14 0))
(declare-const F15 Int)
(assert (>= F15 0))
(declare-const Section_15 Int)
(assert (>= Section_15 0))
(declare-const F16 Int)
(assert (>= F16 0))
(declare-const Section_16 Int)
(assert (>= Section_16 0))
(declare-const F17 Int)
(assert (>= F17 0))
(declare-const Section_17 Int)
(assert (>= Section_17 0))
(declare-const F18 Int)
(assert (>= F18 0))
(declare-const Section_18 Int)
(assert (>= Section_18 0))
(declare-const F19 Int)
(assert (>= F19 0))
(declare-const Section_19 Int)
(assert (>= Section_19 0))
(declare-const F20 Int)
(assert (>= F20 0))
(declare-const Section_20 Int)
(assert (>= Section_20 0))
(declare-const F2 Int)
(assert (>= F2 0))
(declare-const Section_1 Int)
(assert (>= Section_1 0))
(declare-const F96 Int)
(assert (>= F96 0))
(declare-const Section_2 Int)
(assert (>= Section_2 0))
(declare-const F21 Int)
(assert (>= F21 0))
(declare-const Section_21 Int)
(assert (>= Section_21 0))
(declare-const F22 Int)
(assert (>= F22 0))
(declare-const Section_22 Int)
(assert (>= Section_22 0))
(declare-const F23 Int)
(assert (>= F23 0))
(declare-const Section_23 Int)
(assert (>= Section_23 0))
(declare-const F24 Int)
(assert (>= F24 0))
(declare-const Section_24 Int)
(assert (>= Section_24 0))
(declare-const F25 Int)
(assert (>= F25 0))
(declare-const Section_25 Int)
(assert (>= Section_25 0))
(declare-const F26 Int)
(assert (>= F26 0))
(declare-const Section_26 Int)
(assert (>= Section_26 0))
(declare-const F27 Int)
(assert (>= F27 0))
(declare-const Section_27 Int)
(assert (>= Section_27 0))
(declare-const F28 Int)
(assert (>= F28 0))
(declare-const Section_28 Int)
(assert (>= Section_28 0))
(declare-const F29 Int)
(assert (>= F29 0))
(declare-const Section_29 Int)
(assert (>= Section_29 0))
(declare-const F30 Int)
(assert (>= F30 0))
(declare-const Section_30 Int)
(assert (>= Section_30 0))
(declare-const F3 Int)
(assert (>= F3 0))
(declare-const F1 Int)
(assert (>= F1 0))
(declare-const Section_3 Int)
(assert (>= Section_3 0))
(declare-const F31 Int)
(assert (>= F31 0))
(declare-const Section_31 Int)
(assert (>= Section_31 0))
(declare-const F32 Int)
(assert (>= F32 0))
(declare-const Section_32 Int)
(assert (>= Section_32 0))
(declare-const F33 Int)
(assert (>= F33 0))
(declare-const Section_33 Int)
(assert (>= Section_33 0))
(declare-const F34 Int)
(assert (>= F34 0))
(declare-const Section_34 Int)
(assert (>= Section_34 0))
(declare-const F35 Int)
(assert (>= F35 0))
(declare-const Section_35 Int)
(assert (>= Section_35 0))
(declare-const F36 Int)
(assert (>= F36 0))
(declare-const Section_36 Int)
(assert (>= Section_36 0))
(declare-const F37 Int)
(assert (>= F37 0))
(declare-const Section_37 Int)
(assert (>= Section_37 0))
(declare-const F38 Int)
(assert (>= F38 0))
(declare-const Section_38 Int)
(assert (>= Section_38 0))
(declare-const F39 Int)
(assert (>= F39 0))
(declare-const Section_39 Int)
(assert (>= Section_39 0))
(declare-const F40 Int)
(assert (>= F40 0))
(declare-const Section_40 Int)
(assert (>= Section_40 0))
(declare-const F4 Int)
(assert (>= F4 0))
(declare-const Section_4 Int)
(assert (>= Section_4 0))
(declare-const F41 Int)
(assert (>= F41 0))
(declare-const Section_41 Int)
(assert (>= Section_41 0))
(declare-const F42 Int)
(assert (>= F42 0))
(declare-const Section_42 Int)
(assert (>= Section_42 0))
(declare-const F43 Int)
(assert (>= F43 0))
(declare-const Section_43 Int)
(assert (>= Section_43 0))
(declare-const F44 Int)
(assert (>= F44 0))
(declare-const Section_44 Int)
(assert (>= Section_44 0))
(declare-const F45 Int)
(assert (>= F45 0))
(declare-const Section_45 Int)
(assert (>= Section_45 0))
(declare-const F46 Int)
(assert (>= F46 0))
(declare-const Section_46 Int)
(assert (>= Section_46 0))
(declare-const F47 Int)
(assert (>= F47 0))
(declare-const Section_47 Int)
(assert (>= Section_47 0))
(declare-const F48 Int)
(assert (>= F48 0))
(declare-const Section_48 Int)
(assert (>= Section_48 0))
(declare-const F49 Int)
(assert (>= F49 0))
(declare-const Section_49 Int)
(assert (>= Section_49 0))
(declare-const F50 Int)
(assert (>= F50 0))
(declare-const Section_50 Int)
(assert (>= Section_50 0))
(declare-const F5 Int)
(assert (>= F5 0))
(declare-const Section_5 Int)
(assert (>= Section_5 0))
(declare-const F51 Int)
(assert (>= F51 0))
(declare-const Section_51 Int)
(assert (>= Section_51 0))
(declare-const F52 Int)
(assert (>= F52 0))
(declare-const Section_52 Int)
(assert (>= Section_52 0))
(declare-const F53 Int)
(assert (>= F53 0))
(declare-const Section_53 Int)
(assert (>= Section_53 0))
(declare-const F54 Int)
(assert (>= F54 0))
(declare-const Section_54 Int)
(assert (>= Section_54 0))
(declare-const F55 Int)
(assert (>= F55 0))
(declare-const Section_55 Int)
(assert (>= Section_55 0))
(declare-const F56 Int)
(assert (>= F56 0))
(declare-const Section_56 Int)
(assert (>= Section_56 0))
(declare-const F57 Int)
(assert (>= F57 0))
(declare-const Section_57 Int)
(assert (>= Section_57 0))
(declare-const F58 Int)
(assert (>= F58 0))
(declare-const Section_58 Int)
(assert (>= Section_58 0))
(declare-const F59 Int)
(assert (>= F59 0))
(declare-const Section_59 Int)
(assert (>= Section_59 0))
(declare-const F60 Int)
(assert (>= F60 0))
(declare-const Section_60 Int)
(assert (>= Section_60 0))
(declare-const F6 Int)
(assert (>= F6 0))
(declare-const Section_6 Int)
(assert (>= Section_6 0))
(declare-const F61 Int)
(assert (>= F61 0))
(declare-const Section_61 Int)
(assert (>= Section_61 0))
(declare-const F62 Int)
(assert (>= F62 0))
(declare-const Section_62 Int)
(assert (>= Section_62 0))
(declare-const F63 Int)
(assert (>= F63 0))
(declare-const Section_63 Int)
(assert (>= Section_63 0))
(declare-const F64 Int)
(assert (>= F64 0))
(declare-const Section_64 Int)
(assert (>= Section_64 0))
(declare-const F65 Int)
(assert (>= F65 0))
(declare-const Section_65 Int)
(assert (>= Section_65 0))
(declare-const F66 Int)
(assert (>= F66 0))
(declare-const Section_66 Int)
(assert (>= Section_66 0))
(declare-const F67 Int)
(assert (>= F67 0))
(declare-const Section_67 Int)
(assert (>= Section_67 0))
(declare-const F68 Int)
(assert (>= F68 0))
(declare-const Section_68 Int)
(assert (>= Section_68 0))
(declare-const F69 Int)
(assert (>= F69 0))
(declare-const Section_69 Int)
(assert (>= Section_69 0))
(declare-const F70 Int)
(assert (>= F70 0))
(declare-const Section_70 Int)
(assert (>= Section_70 0))
(declare-const F7 Int)
(assert (>= F7 0))
(declare-const Section_7 Int)
(assert (>= Section_7 0))
(declare-const F71 Int)
(assert (>= F71 0))
(declare-const Section_71 Int)
(assert (>= Section_71 0))
(declare-const F72 Int)
(assert (>= F72 0))
(declare-const Section_72 Int)
(assert (>= Section_72 0))
(declare-const F73 Int)
(assert (>= F73 0))
(declare-const Section_73 Int)
(assert (>= Section_73 0))
(declare-const F74 Int)
(assert (>= F74 0))
(declare-const Section_74 Int)
(assert (>= Section_74 0))
(declare-const F75 Int)
(assert (>= F75 0))
(declare-const Section_75 Int)
(assert (>= Section_75 0))
(declare-const F76 Int)
(assert (>= F76 0))
(declare-const Section_76 Int)
(assert (>= Section_76 0))
(declare-const F77 Int)
(assert (>= F77 0))
(declare-const Section_77 Int)
(assert (>= Section_77 0))
(declare-const F78 Int)
(assert (>= F78 0))
(declare-const Section_78 Int)
(assert (>= Section_78 0))
(declare-const F79 Int)
(assert (>= F79 0))
(declare-const Section_79 Int)
(assert (>= Section_79 0))
(declare-const F80 Int)
(assert (>= F80 0))
(declare-const Section_80 Int)
(assert (>= Section_80 0))
(declare-const F8 Int)
(assert (>= F8 0))
(declare-const Section_8 Int)
(assert (>= Section_8 0))
(declare-const F81 Int)
(assert (>= F81 0))
(declare-const Section_81 Int)
(assert (>= Section_81 0))
(declare-const F82 Int)
(assert (>= F82 0))
(declare-const Section_82 Int)
(assert (>= Section_82 0))
(declare-const F83 Int)
(assert (>= F83 0))
(declare-const Section_83 Int)
(assert (>= Section_83 0))
(declare-const F84 Int)
(assert (>= F84 0))
(declare-const Section_84 Int)
(assert (>= Section_84 0))
(declare-const F85 Int)
(assert (>= F85 0))
(declare-const Section_85 Int)
(assert (>= Section_85 0))
(declare-const F86 Int)
(assert (>= F86 0))
(declare-const Section_86 Int)
(assert (>= Section_86 0))
(declare-const F87 Int)
(assert (>= F87 0))
(declare-const Section_87 Int)
(assert (>= Section_87 0))
(declare-const F88 Int)
(assert (>= F88 0))
(declare-const Section_88 Int)
(assert (>= Section_88 0))
(declare-const F89 Int)
(assert (>= F89 0))
(declare-const Section_89 Int)
(assert (>= Section_89 0))
(declare-const F90 Int)
(assert (>= F90 0))
(declare-const Section_90 Int)
(assert (>= Section_90 0))
(declare-const Section_9 Int)
(assert (>= Section_9 0))
(declare-const F91 Int)
(assert (>= F91 0))
(declare-const Section_91 Int)
(assert (>= Section_91 0))
(declare-const F92 Int)
(assert (>= F92 0))
(declare-const Section_92 Int)
(assert (>= Section_92 0))
(declare-const F93 Int)
(assert (>= F93 0))
(declare-const Section_93 Int)
(assert (>= Section_93 0))
(declare-const F94 Int)
(assert (>= F94 0))
(declare-const Section_94 Int)
(assert (>= Section_94 0))
(declare-const F95 Int)
(assert (>= F95 0))
(declare-const Section_95 Int)
(assert (>= Section_95 0))
(declare-const Section_96 Int)
(assert (>= Section_96 0))

(declare-const a1 Int)
(assert (>= a1 0))
(declare-const a2 Int)
(assert (>= a2 0))
(declare-const a3 Int)
(assert (>= a3 0))
(declare-const a4 Int)
(assert (>= a4 0))
(declare-const a5 Int)
(assert (>= a5 0))
(declare-const a6 Int)
(assert (>= a6 0))
(declare-const a7 Int)
(assert (>= a7 0))
(declare-const a8 Int)
(assert (>= a8 0))
(declare-const a9 Int)
(assert (>= a9 0))
(declare-const a10 Int)
(assert (>= a10 0))
(declare-const a11 Int)
(assert (>= a11 0))
(declare-const a12 Int)
(assert (>= a12 0))
(declare-const a13 Int)
(assert (>= a13 0))
(declare-const a14 Int)
(assert (>= a14 0))
(declare-const a15 Int)
(assert (>= a15 0))
(declare-const a16 Int)
(assert (>= a16 0))
(declare-const a17 Int)
(assert (>= a17 0))
(declare-const a18 Int)
(assert (>= a18 0))
(declare-const a19 Int)
(assert (>= a19 0))
(declare-const a20 Int)
(assert (>= a20 0))
(declare-const a21 Int)
(assert (>= a21 0))
(declare-const a22 Int)
(assert (>= a22 0))
(declare-const a23 Int)
(assert (>= a23 0))
(declare-const a24 Int)
(assert (>= a24 0))
(declare-const a25 Int)
(assert (>= a25 0))
(declare-const a26 Int)
(assert (>= a26 0))
(declare-const a27 Int)
(assert (>= a27 0))
(declare-const a28 Int)
(assert (>= a28 0))
(declare-const a29 Int)
(assert (>= a29 0))
(declare-const a30 Int)
(assert (>= a30 0))
(declare-const a31 Int)
(assert (>= a31 0))
(declare-const a32 Int)
(assert (>= a32 0))
(declare-const a33 Int)
(assert (>= a33 0))
(declare-const a34 Int)
(assert (>= a34 0))
(declare-const a35 Int)
(assert (>= a35 0))
(declare-const a36 Int)
(assert (>= a36 0))
(declare-const a37 Int)
(assert (>= a37 0))
(declare-const a38 Int)
(assert (>= a38 0))
(declare-const a39 Int)
(assert (>= a39 0))
(declare-const a40 Int)
(assert (>= a40 0))
(declare-const a41 Int)
(assert (>= a41 0))
(declare-const a42 Int)
(assert (>= a42 0))
(declare-const a43 Int)
(assert (>= a43 0))
(declare-const a44 Int)
(assert (>= a44 0))
(declare-const a45 Int)
(assert (>= a45 0))
(declare-const a46 Int)
(assert (>= a46 0))
(declare-const a47 Int)
(assert (>= a47 0))
(declare-const a48 Int)
(assert (>= a48 0))
(declare-const a49 Int)
(assert (>= a49 0))
(declare-const a50 Int)
(assert (>= a50 0))
(declare-const a51 Int)
(assert (>= a51 0))
(declare-const a52 Int)
(assert (>= a52 0))
(declare-const a53 Int)
(assert (>= a53 0))
(declare-const a54 Int)
(assert (>= a54 0))
(declare-const a55 Int)
(assert (>= a55 0))
(declare-const a56 Int)
(assert (>= a56 0))
(declare-const a57 Int)
(assert (>= a57 0))
(declare-const a58 Int)
(assert (>= a58 0))
(declare-const a59 Int)
(assert (>= a59 0))
(declare-const a60 Int)
(assert (>= a60 0))
(declare-const a61 Int)
(assert (>= a61 0))
(declare-const a62 Int)
(assert (>= a62 0))
(declare-const a63 Int)
(assert (>= a63 0))
(declare-const a64 Int)
(assert (>= a64 0))

(assert (= F2 (+ F1 F3 Section_1 Section_4)))
(assert (= F95 (+ F94 F96 Section_1 Section_94)))
(assert (= a1 (+ F96 Section_1)))
(assert (= a2 (+ Section_2 Section_1)))
(assert (= a3 (+ F93 Section_94)))
(assert (= a4 (+ Section_95 Section_94)))
(assert (= F92 (+ F91 a3 Section_91)))
(assert (= F11 (+ F10 F12 Section_10 Section_13)))
(assert (= F8 (+ F7 F9 Section_10 Section_7)))
(assert (= a5 (+ F9 Section_10)))
(assert (= a6 (+ Section_11 Section_10)))
(assert (= a7 (+ F6 Section_7)))
(assert (= a8 (+ Section_8 Section_7)))
(assert (= a9 (+ F90 Section_91)))
(assert (= a10 (+ Section_92 Section_91)))
(assert (= F5 (+ F4 a7 Section_4)))
(assert (= F89 (+ F88 a9 Section_88)))
(assert (= a11 (+ F3 Section_4)))
(assert (= a12 (+ Section_5 Section_4)))
(assert (= a13 (+ F87 Section_88)))
(assert (= a14 (+ Section_89 Section_88)))
(assert (= F86 (+ F85 a13 Section_85)))
(assert (= a15 (+ F84 Section_85)))
(assert (= a16 (+ Section_86 Section_85)))
(assert (= F83 (+ F82 a15 Section_82)))
(assert (= a17 (+ F81 Section_82)))
(assert (= a18 (+ Section_83 Section_82)))
(assert (= F80 (+ F79 a17 Section_79)))
(assert (= a19 (+ F78 Section_79)))
(assert (= a20 (+ Section_80 Section_79)))
(assert (= F77 (+ F76 a19 Section_76)))
(assert (= a21 (+ F75 Section_76)))
(assert (= a22 (+ Section_77 Section_76)))
(assert (= F74 (+ F73 a21 Section_73)))
(assert (= a23 (+ F72 Section_73)))
(assert (= a24 (+ Section_74 Section_73)))
(assert (= F71 (+ F70 a23 Section_70)))
(assert (= a25 (+ F69 Section_70)))
(assert (= a26 (+ Section_71 Section_70)))
(assert (= F68 (+ F67 a25 Section_67)))
(assert (= a27 (+ F66 Section_67)))
(assert (= a28 (+ Section_68 Section_67)))
(assert (= F65 (+ F64 a27 Section_64)))
(assert (= a29 (+ F63 Section_64)))
(assert (= a30 (+ Section_65 Section_64)))
(assert (= F62 (+ F61 a29 Section_61)))
(assert (= a31 (+ F60 Section_61)))
(assert (= a32 (+ Section_62 Section_61)))
(assert (= F59 (+ F58 a31 Section_58)))
(assert (= a33 (+ F57 Section_58)))
(assert (= a34 (+ Section_59 Section_58)))
(assert (= F56 (+ F55 a33 Section_55)))
(assert (= a35 (+ F54 Section_55)))
(assert (= a36 (+ Section_56 Section_55)))
(assert (= F53 (+ F52 a35 Section_52)))
(assert (= a37 (+ F51 Section_52)))
(assert (= a38 (+ Section_53 Section_52)))
(assert (= F50 (+ F49 a37 Section_49)))
(assert (= a39 (+ F48 Section_49)))
(assert (= a40 (+ Section_50 Section_49)))
(assert (= F47 (+ F46 a39 Section_46)))
(assert (= a41 (+ F45 Section_46)))
(assert (= a42 (+ Section_47 Section_46)))
(assert (= F44 (+ F43 a41 Section_43)))
(assert (= a43 (+ F42 Section_43)))
(assert (= a44 (+ Section_44 Section_43)))
(assert (= F41 (+ F40 a43 Section_40)))
(assert (= a45 (+ F39 Section_40)))
(assert (= a46 (+ Section_41 Section_40)))
(assert (= F38 (+ F37 a45 Section_37)))
(assert (= a47 (+ F36 Section_37)))
(assert (= a48 (+ Section_38 Section_37)))
(assert (= F35 (+ F34 a47 Section_34)))
(assert (= a49 (+ F33 Section_34)))
(assert (= a50 (+ Section_35 Section_34)))
(assert (= F32 (+ F31 a49 Section_31)))
(assert (= a51 (+ F30 Section_31)))
(assert (= a52 (+ Section_32 Section_31)))
(assert (= F29 (+ F28 a51 Section_28)))
(assert (= a53 (+ F27 Section_28)))
(assert (= a54 (+ Section_29 Section_28)))
(assert (= F26 (+ F25 a53 Section_25)))
(assert (= a55 (+ F24 Section_25)))
(assert (= a56 (+ Section_26 Section_25)))
(assert (= F23 (+ F22 a55 Section_22)))
(assert (= a57 (+ F21 Section_22)))
(assert (= a58 (+ Section_23 Section_22)))
(assert (= F20 (+ F19 a57 Section_19)))
(assert (= a59 (+ F18 Section_19)))
(assert (= a60 (+ Section_20 Section_19)))
(assert (= F17 (+ F16 a59 Section_16)))
(assert (= a61 (+ F15 Section_16)))
(assert (= a62 (+ Section_17 Section_16)))
(assert (= F14 (+ F13 a61 Section_13)))
(assert (= a63 (+ F12 Section_13)))
(assert (= a64 (+ Section_14 Section_13)))
(assert (= (+ F1 F10 a63 F13 a61 F16 a59 F19 a57 F22 a55 F25 a53 F28 a11 a51 F31 a49 F34 a47 F37 a45 F4 F40 a43 F43 a41 F46 a39 F49 a37 F52 a35 F55 a33 F58 a7 a31 F61 a29 F64 a27 F67 a25 F7 F70 a23 F73 a21 F76 a19 F79 a17 F82 a15 F85 a13 F88 a5 a9 F91 a3 F94 a1) 32))
(assert (= (+ F10 a6) 1))
(assert (= (+ a63 Section_12) 1))
(assert (= (+ F13 a64) 1))
(assert (= (+ a61 Section_15) 1))
(assert (= (+ F16 a62) 1))
(assert (= (+ a59 Section_18) 1))
(assert (= (+ F1 a2) 1))
(assert (= (+ F19 a60) 1))
(assert (= (+ a57 Section_21) 1))
(assert (= (+ F22 a58) 1))
(assert (= (+ a55 Section_24) 1))
(assert (= (+ F25 a56) 1))
(assert (= (+ a53 Section_27) 1))
(assert (= (+ F28 a54) 1))
(assert (= (+ a11 Section_3) 1))
(assert (= (+ a51 Section_30) 1))
(assert (= (+ F31 a52) 1))
(assert (= (+ a49 Section_33) 1))
(assert (= (+ F34 a50) 1))
(assert (= (+ a47 Section_36) 1))
(assert (= (+ F37 a48) 1))
(assert (= (+ a45 Section_39) 1))
(assert (= (+ F40 a46) 1))
(assert (= (+ a43 Section_42) 1))
(assert (= (+ F43 a44) 1))
(assert (= (+ a41 Section_45) 1))
(assert (= (+ F46 a42) 1))
(assert (= (+ a39 Section_48) 1))
(assert (= (+ F4 a12) 1))
(assert (= (+ F49 a40) 1))
(assert (= (+ a37 Section_51) 1))
(assert (= (+ F52 a38) 1))
(assert (= (+ a35 Section_54) 1))
(assert (= (+ F55 a36) 1))
(assert (= (+ a33 Section_57) 1))
(assert (= (+ F58 a34) 1))
(assert (= (+ a7 Section_6) 1))
(assert (= (+ a31 Section_60) 1))
(assert (= (+ F61 a32) 1))
(assert (= (+ a29 Section_63) 1))
(assert (= (+ F64 a30) 1))
(assert (= (+ a27 Section_66) 1))
(assert (= (+ F67 a28) 1))
(assert (= (+ a25 Section_69) 1))
(assert (= (+ F70 a26) 1))
(assert (= (+ a23 Section_72) 1))
(assert (= (+ F73 a24) 1))
(assert (= (+ a21 Section_75) 1))
(assert (= (+ F76 a22) 1))
(assert (= (+ a19 Section_78) 1))
(assert (= (+ F7 a8) 1))
(assert (= (+ F79 a20) 1))
(assert (= (+ a17 Section_81) 1))
(assert (= (+ F82 a18) 1))
(assert (= (+ a15 Section_84) 1))
(assert (= (+ F85 a16) 1))
(assert (= (+ a13 Section_87) 1))
(assert (= (+ F88 a14) 1))
(assert (= (+ a5 Section_9) 1))
(assert (= (+ a9 Section_90) 1))
(assert (= (+ F91 a10) 1))
(assert (= (+ a3 Section_93) 1))
(assert (= (+ F94 a4) 1))
(assert (= (+ a6 Section_12 a64 Section_15 a62 Section_18 a2 a60 Section_21 a58 Section_24 a56 Section_27 a54 Section_3 Section_30 a52 Section_33 a50 Section_36 a48 Section_39 a46 Section_42 a44 Section_45 a42 Section_48 a12 a40 Section_51 a38 Section_54 a36 Section_57 a34 Section_6 Section_60 a32 Section_63 a30 Section_66 a28 Section_69 a26 Section_72 a24 Section_75 a22 Section_78 a8 a20 Section_81 a18 Section_84 a16 Section_87 a14 Section_9 Section_90 a10 Section_93 a4 Section_96) 32))
(assert (= (+ a1 Section_96) 1))

(assert (and (and (or (<= 2 F34)(<= F34 Section_14))(<= 1 Section_5))(<= F53 Section_74)))

(check-sat)
(exit)
